(set-info :origin "driver benchmark extracted from Microsoft SDV")
(set-logic HORN)
(declare-fun Proc33 (Int Int Int Int Bool Int Int) Bool)
(declare-fun Proc12 (Int Int Int Int Bool Int Int Int Int Int) Bool)
(declare-fun Proc22 (Int Int Int Int Bool Int) Bool)
(declare-fun Proc40 (Int Int Int Int Bool Int Int Int Int) Bool)
(declare-fun Proc24 (Int Int Int Int Bool Int Int) Bool)
(declare-fun Proc0 (Int Int Int Int Bool Int Int) Bool)
(declare-fun Proc1 (Int Int Int Int Bool Int Int) Bool)
(declare-fun Proc9 (Int Int Int Int Bool Int) Bool)
(declare-fun Proc37 (Int Int Int Int Bool Int Int Int Int) Bool)
(declare-fun Proc39 (Int Int Int Int Bool Int Int Int Int) Bool)
(declare-fun Proc25 (Int Int Int Int Bool Int Int) Bool)
(declare-fun Proc18 (Int Int Int Int Bool) Bool)
(declare-fun Proc42 (Int Int Int Int Bool) Bool)
(declare-fun Proc36 (Int Int Int Int Bool Int Int Int Int) Bool)
(declare-fun Proc2 (Int Int Int Int Bool Int) Bool)
(declare-fun Proc14 (Int Int Int Int Bool Int Int) Bool)
(declare-fun Proc35 (Int Int Int Int Bool Int Int Int Int) Bool)
(declare-fun Proc16 (Int Int Int Int Bool Int) Bool)
(declare-fun Proc38 (Int Int Int Int Bool Int Int Int Int) Bool)
(declare-fun Proc11 (Int Int Int Int Bool Int Int Int Int) Bool)
(declare-fun Proc3 (Int Int Int Int Bool Int Int Int Int) Bool)
(declare-fun Proc6 (Int Int Int Int Bool Int Int Int Int) Bool)
(declare-fun Proc20 (Int Int Int Int Bool) Bool)
(declare-fun Proc19 (Int Int Int Int Bool) Bool)
(declare-fun Proc17 (Int Int Int Int Bool Int Int Int Int Int) Bool)
(declare-fun Proc31 (Int Int Int Int Bool) Bool)
(declare-fun Proc21 (Int Int Int Int Bool) Bool)
(declare-fun Proc43 (Int Int Int Int Bool Int Bool Int Int Int Int) Bool)
(declare-fun Proc41 (Int Int Int Int Bool Int Int Int Int) Bool)
(declare-fun Proc27 (Int Int Int Int Bool Int Int) Bool)
(declare-fun Proc5 (Int Int Int Int Bool Int Int Int Int) Bool)
(declare-fun Proc13 (Int Int Int Int Bool Int Int Int Int) Bool)
(declare-fun Proc29 (Int Int Int Int Bool) Bool)
(declare-fun Proc28 (Int Int Int Int Bool) Bool)
(declare-fun Proc15 (Int Int Int Int Bool Int Int Int Int Int) Bool)
(declare-fun Proc34 (Int Int Int Int Bool Int Int Int Int) Bool)
(declare-fun Proc8 (Int Int Int Int Bool Int Int Int) Bool)
(declare-fun Proc26 (Int Int Int Int Bool Int Int Int Bool Int Int) Bool)
(declare-fun Proc32 (Int Int Int Int Bool Int) Bool)
(declare-fun Proc30 (Int Int Int Int Bool Int Int Int Int) Bool)
(declare-fun Proc10 (Int Int Int Int Bool Int Int Int Int) Bool)
(declare-fun Proc4 (Int Int Int Int Bool Int Int Int) Bool)
(declare-fun Proc7 (Int Int Int Int Bool Int Int Int Int Int Int Int Int) Bool)
(declare-fun Proc23 (Int Int Int Int Bool Int) Bool)
(assert (forall ((A Int)
         (B Int)
         (C Int)
         (D Int)
         (E Int)
         (F Int)
         (G Int)
         (H Int)
         (I Int)
         (J Int)
         (K Int)
         (L Int)
         (M Int)
         (N Int)
         (O Int)
         (P Int)
         (Q Int)
         (R Int)
         (S Int)
         (T Bool))
  (let ((a!1 (or (= O 0)
                 (not (Proc1 S R Q P T O 0))
                 (not (and (= M S) (= L 0)))
                 (not (and (= K L) (= J M)))))
        (a!2 (or (not (= D E))
                 (not (and (= M D) (= L F)))
                 (not (and (= K L) (= J M)))))
        (a!3 (and (not (<= B (+ 1 C))) (not (<= B E)))))
  (let ((a!4 (or (not (= C E))
                 (not a!3)
                 (not (and (Proc4 B R Q P T C F A) (= D A)))
                 (not (and (= M D) (= L F)))
                 (not (and (= K L) (= J M))))))
  (let ((a!5 (and a!1
                  (or (= O 0)
                      (not (Proc2 S R Q P T O))
                      (= I 0)
                      (= H 0)
                      (not (Proc3 S R Q P T G O F E))
                      (and a!2 a!4)))))
  (let ((a!6 (not (or (not T) (not (Proc0 S R Q P T O N)) (= N 0) a!5))))
    (=> a!6 (Proc5 S R Q P T I O K J))))))))
(assert (forall ((A Int)
         (B Int)
         (C Int)
         (D Int)
         (E Int)
         (F Int)
         (G Int)
         (H Int)
         (I Int)
         (J Int)
         (K Int)
         (L Int)
         (M Int)
         (N Int)
         (O Int)
         (P Int)
         (T Bool))
  (let ((a!1 (or (not (= F G)) (not (and (= E 0) (= D F)))))
        (a!2 (and (not (<= B (+ 1 C))) (not (<= B G)))))
  (let ((a!3 (or (not (= C G))
                 (not a!2)
                 (not (and (Proc4 B O N M T C H A) (= F A)))
                 (not (and (= E 0) (= D F))))))
  (let ((a!4 (not (or (not T)
                      (not (Proc2 P O N M T L))
                      (= K 0)
                      (= J 0)
                      (not (Proc3 P O N M T I L H G))
                      (and a!1 a!3)))))
    (=> a!4 (Proc6 P O N M T K L E D)))))))
(assert (forall ((A Int)
         (B Int)
         (C Int)
         (D Int)
         (E Int)
         (F Int)
         (G Int)
         (H Int)
         (I Int)
         (J Int)
         (K Int)
         (L Int)
         (M Int)
         (N Int)
         (O Int)
         (P Int)
         (Q Int)
         (R Int)
         (T Bool))
  (let ((a!1 (and (not (<= P (+ 4 R))) (not (<= P Q))))
        (a!2 (or (<= 0 K) (not (= J K)) (not (and (= I J) (= H P)))))
        (a!3 (not (and (not (= G 0)) (Proc8 P O N M T F E D))))
        (a!4 (or (not (= J K)) (not (and (= I J) (= H P)))))
        (a!5 (not (and (= B (- 1073741810)) (= J B)))))
  (let ((a!6 (or (not (Proc9 P O N M T C)) a!5 (not (and (= I J) (= H P))))))
  (let ((a!7 (and a!2 (or (not (<= 0 K)) (= G 0) a!3 (and a!4 a!6)))))
  (let ((a!8 (not (or (not T)
                      (not (= R Q))
                      (not a!1)
                      (not (Proc7 P O N M T L 12 0 34 256 0 R K))
                      a!7))))
    (=> a!8 (Proc10 Q O N M T L A I H))))))))
(assert (forall ((A Int)
         (B Int)
         (C Int)
         (D Int)
         (E Int)
         (F Int)
         (G Int)
         (H Int)
         (I Int)
         (J Int)
         (K Int)
         (L Int)
         (M Int)
         (N Int)
         (O Int)
         (P Int)
         (Q Int)
         (R Int)
         (S Int)
         (T Bool)
         (U Int)
         (V Int)
         (W Int)
         (X Int)
         (Y Int)
         (Z Int)
         (A1 Int)
         (B1 Int)
         (C1 Int)
         (D1 Int)
         (E1 Int)
         (F1 Int)
         (G1 Int)
         (H1 Int)
         (I1 Int)
         (J1 Int)
         (K1 Int)
         (L1 Int)
         (M1 Int)
         (N1 Int)
         (O1 Int)
         (P1 Int)
         (Q1 Int))
  (let ((a!1 (and (not (<= O1 (+ 1 Q1))) (not (<= O1 P1))))
        (a!2 (and (not (<= M1 (+ 1 N1))) (not (<= M1 O1))))
        (a!3 (and (not (<= K1 (+ 1 L1))) (not (<= K1 M1))))
        (a!4 (and (not (<= I1 (+ 1 J1))) (not (<= I1 K1))))
        (a!5 (and (not (<= G1 (+ 1 H1))) (not (<= G1 I1))))
        (a!6 (and (not (<= E1 (+ 1 F1))) (not (<= E1 G1))))
        (a!7 (and (not (<= C1 (+ 1 D1))) (not (<= C1 E1))))
        (a!8 (and (not (<= A1 (+ 1 B1))) (not (<= A1 C1))))
        (a!9 (and (not (<= Y (+ 1 Z))) (not (<= Y A1))))
        (a!10 (and (not (<= W (+ 1 X))) (not (<= W Y))))
        (a!11 (and (not (<= U (+ 1 V))) (not (<= U W)))))
  (let ((a!12 (or (not T)
                  (not (= Q1 P1))
                  (not a!1)
                  (not (= N1 O1))
                  (not a!2)
                  (not (= L1 M1))
                  (not a!3)
                  (not (= J1 K1))
                  (not a!4)
                  (not (= H1 I1))
                  (not a!5)
                  (not (= F1 G1))
                  (not a!6)
                  (not (= D1 E1))
                  (not a!7)
                  (not (= B1 C1))
                  (not a!8)
                  (not (= Z A1))
                  (not a!9)
                  (not (= X Y))
                  (not a!10)
                  (not (= V W))
                  (not a!11)
                  (= S 0)
                  (= R 0)
                  (= Q 0)
                  (= P 0)
                  (= O 0)
                  (= N 0)
                  (= M 0)
                  (= L 0)
                  (= K 0)
                  (= J 0)
                  (= I 0)
                  (= H 0)
                  (= G 0)
                  (not (and (= F 0) (= E U))))))
    (=> (not a!12) (Proc11 P1 D C B T S A F E))))))
(assert (forall ((A Int)
         (B Int)
         (C Int)
         (D Int)
         (E Int)
         (F Int)
         (G Int)
         (H Int)
         (T Bool))
  (let ((a!1 (and (or (not (= H 0)) (not (= G H)))
                  (or (not (= H F)) (not (= G H))))))
    (=> (not (or (not T) a!1)) (Proc8 E D C B T A F G)))))
(assert (forall ((A Int)
         (B Int)
         (C Int)
         (D Int)
         (E Int)
         (F Int)
         (G Int)
         (H Int)
         (I Int)
         (J Int)
         (K Int)
         (L Int)
         (M Int)
         (N Int)
         (O Int)
         (P Int)
         (Q Int)
         (T Bool))
  (let ((a!1 (not (and (= N (- 1073741823)) (= P N))))
        (a!2 (not (and (= M (- 1073741670)) (= P M))))
        (a!3 (not (and (= L (- 1073741771)) (= P L))))
        (a!4 (not (and (= K (- 1073741824)) (= P K)))))
  (let ((a!5 (and (or (= Q 0) (not (= P 0)) (not (= O P)))
                  (or (= Q 0) a!1 (not (= O P)))
                  (or (= Q 0) a!2 (not (= O P)))
                  (or (= Q 0) a!3 (not (= O P)))
                  (or (= Q 0) a!4 (not (= O P))))))
    (=> (not (or (not T) a!5)) (Proc7 J I H G T F E D C B A Q O))))))
(assert (forall ((A Int) (B Int) (C Int) (D Int) (E Int) (T Bool))
  (=> T (Proc9 E D C B T A))))
(assert (forall ((A Int)
         (B Int)
         (C Int)
         (D Int)
         (E Int)
         (F Int)
         (G Int)
         (H Int)
         (I Int)
         (J Int)
         (K Int)
         (L Int)
         (M Int)
         (N Int)
         (O Int)
         (P Int)
         (Q Int)
         (R Int)
         (S Int)
         (T Bool)
         (U Int)
         (V Int)
         (W Int))
  (let ((a!1 (and (not (<= U (+ 4 W))) (not (<= U V))))
        (a!2 (or (not (Proc12 U R Q P T O S N W M))
                 (not (and (= L 259) (= K U)))))
        (a!4 (or (not (Proc12 U R Q P T J S I W H))
                 (not (and (= L 259) (= K U)))))
        (a!6 (or (not (Proc12 U R Q P T G S F W E))
                 (not (and (= L 259) (= K U)))))
        (a!8 (or (not (Proc12 U R Q P T D S C W B))
                 (not (and (= L 259) (= K U))))))
  (let ((a!3 (and a!2 (not (and (= L 259) (= K U)))))
        (a!5 (and a!4 (not (and (= L 259) (= K U)))))
        (a!7 (and a!6 (not (and (= L 259) (= K U)))))
        (a!9 (and a!8 (not (and (= L 259) (= K U))))))
  (let ((a!10 (or (not T)
                  (not (= W V))
                  (not a!1)
                  (and (or (= S 0) a!3)
                       (or (= S 0) a!5)
                       (or (= S 0) a!7)
                       (or (= S 0) a!9)))))
    (=> (not a!10) (Proc13 V R Q P T A S L K)))))))
(assert (forall ((A Int)
         (B Int)
         (C Int)
         (D Int)
         (E Int)
         (F Int)
         (G Int)
         (H Int)
         (I Int)
         (J Int)
         (K Int)
         (L Int)
         (T Bool))
  (let ((a!1 (and (not (<= J (+ 1 L))) (not (<= J K)))))
  (let ((a!2 (or (not T)
                 (not (= L K))
                 (not a!1)
                 (not (Proc14 J I H G T L F))
                 (not (and (= E J) (= D F))))))
    (=> (not a!2) (Proc15 K I H G T C B A E D))))))
(assert (forall ((A Int) (B Int) (C Int) (D Int) (E Int) (F Int) (T Bool))
  (let ((a!1 (not (or (not T) (not (= F 1))))))
    (=> a!1 (Proc14 E D C B T A F)))))
(assert (forall ((A Int) (B Int) (C Int) (D Int) (E Int) (T Bool))
  (=> false (Proc16 E D C B T A))))
(assert (forall ((A Int)
         (B Int)
         (C Int)
         (D Int)
         (E Int)
         (F Int)
         (G Int)
         (H Int)
         (I Int)
         (J Int)
         (T Bool))
  (let ((a!1 (and (not (<= G (+ 1 I))) (not (<= G H))))
        (a!3 (or (not (and (= J 0) (= C H))) (not (= B C)))))
  (let ((a!2 (or (= J 0)
                 (not (= I H))
                 (not a!1)
                 (not (and (Proc16 G F E D T I) (= C G)))
                 (not (= B C)))))
    (=> (not (or (not T) (and a!2 a!3))) (Proc4 H F E D T A J B))))))
(assert (forall ((A Int)
         (B Int)
         (C Int)
         (D Int)
         (E Int)
         (F Int)
         (G Int)
         (H Int)
         (I Int)
         (J Int)
         (K Int)
         (L Int)
         (M Int)
         (N Int)
         (O Int)
         (P Int)
         (T Bool))
  (let ((a!1 (and (not (<= L (+ 1 N))) (not (<= L M))))
        (a!4 (or (not (= A 1))
                 (not (and (= H B) (= G A)))
                 (not (and (= F H) (= E G)))))
        (a!5 (or (= A 1)
                 (not (and (= H B) (= G A)))
                 (not (and (= F H) (= E G))))))
  (let ((a!2 (or (not (= O (- 1073741738)))
                 (not (= N M))
                 (not a!1)
                 (not (Proc16 L K J I T N))
                 (not (and (= H L) (= G I)))
                 (not (and (= F H) (= E G)))))
        (a!3 (or (not (= O 259))
                 (not (= N M))
                 (not a!1)
                 (not (Proc16 L K J I T N))
                 (not (and (= H L) (= G I)))
                 (not (and (= F H) (= E G)))))
        (a!6 (or (not (= N M))
                 (not a!1)
                 (not (Proc16 L K J I T N))
                 (not (and (= H L) (= G I)))
                 (not (and (= F H) (= E G)))))
        (a!8 (or (not (= O 0))
                 (not (= N M))
                 (not a!1)
                 (not (Proc16 L K J I T N))
                 (not (and (= H L) (= G I)))
                 (not (and (= F H) (= E G))))))
  (let ((a!7 (and (or (not (Proc15 M K J I T C P O B A)) (and a!4 a!5)) a!6)))
  (let ((a!9 (or (= O 259) (and (or (= O 0) (= D 0) a!7) a!8))))
  (let ((a!10 (and a!2 (or (= O (- 1073741738)) (and a!3 a!9)))))
    (=> (not (or (not T) (= P 0) a!10)) (Proc17 M K J I T C P O F E)))))))))
(assert (forall ((A Int) (B Int) (C Int) (D Int) (T Bool)) (=> T (Proc18 D C B A T))))
(assert (forall ((A Int) (B Int) (C Int) (D Int) (T Bool)) (=> T (Proc19 D C B A T))))
(assert (forall ((A Int) (B Int) (C Int) (D Int) (T Bool)) (=> T (Proc20 D C B A T))))
(assert (forall ((A Int) (B Int) (C Int) (D Int) (T Bool)) (=> T (Proc21 D C B A T))))
(assert (forall ((A Int) (B Int) (C Int) (D Int) (E Int) (T Bool))
  (let ((a!1 (not (or (not T) (not (= E D))))))
    (=> a!1 (Proc22 C B D A T E)))))
(assert (forall ((A Int) (B Int) (C Int) (D Int) (E Int) (T Bool))
  (let ((a!1 (not (or (not T) (not (= E 0))))))
    (=> a!1 (Proc23 D C B A T E)))))
(assert (forall ((A Int)
         (B Int)
         (C Int)
         (D Int)
         (E Int)
         (F Int)
         (G Int)
         (H Int)
         (I Int)
         (J Int)
         (K Int)
         (L Int)
         (M Int)
         (N Int)
         (O Int)
         (P Int)
         (Q Int)
         (R Int)
         (T Bool)
         (R1 Bool)
         (S1 Bool)
         (T1 Bool))
  (let ((a!1 (not (and (not (<= R 0)) (Proc24 R Q P O T1 N M))))
        (a!2 (not (and (= F H) (= E I) (= D K) (= R1 S1) (= C J) (= B M)))))
  (let ((a!3 (or (= I 0) (not (and (= H G) (not S1))) a!2))
        (a!4 (or (not (and (= I 0) (= T T1))) (not (and (= H A) (= S1 T))) a!2)))
  (let ((a!5 (and (or (= I 1) (and a!3 a!4)) (or (not (= I 1)) (and a!3 a!4)))))
  (let ((a!6 (not (or (not T1)
                      a!1
                      (not (Proc23 N Q M O T1 L))
                      (not (Proc22 N Q M L T1 K))
                      (not (Proc21 N K M L T1))
                      (not (Proc20 N K M L T1))
                      (not (Proc19 N K M L T1))
                      (not (Proc18 N K M L T1))
                      (= K 0)
                      (not (Proc25 N K M L T1 J I))
                      a!5))))
    (=> a!6 (Proc26 R Q P O T1 F E D R1 C B))))))))
(assert (forall ((A Int)
         (B Int)
         (C Int)
         (D Int)
         (E Int)
         (F Int)
         (G Int)
         (H Int)
         (I Int)
         (J Int)
         (T Bool))
  (let ((a!1 (or (not T)
                 (not (Proc13 J I H G T F E D C))
                 (not (and (= B D) (= A C))))))
    (=> (not a!1) (Proc3 J I H G T F E B A)))))
(assert (forall ((A Int) (B Int) (C Int) (D Int) (E Int) (F Int) (T Bool))
  (=> T (Proc1 F E D C T B A))))
(assert (forall ((A Int) (B Int) (C Int) (D Int) (E Int) (F Int) (G Int) (T Bool))
  (let ((a!1 (not (or (not T) (= G 0) (not (= F E))))))
    (=> a!1 (Proc0 D C B A T G F)))))
(assert (forall ((A Int)
         (B Int)
         (C Int)
         (D Int)
         (E Int)
         (F Int)
         (G Int)
         (H Int)
         (I Int)
         (J Int)
         (T Bool))
  (let ((a!1 (and (or (not (= H G)) (not (= F H)))
                  (or (not (= H E)) (not (= F H))))))
  (let ((a!2 (and (or (= J I) a!1)
                  (or (not (= J I)) (not (= H D)) (not (= F H))))))
    (=> (not (or (not T) a!2)) (Proc27 C B I A T J F))))))
(assert (forall ((A Int) (B Int) (C Int) (D Int) (E Int) (T Bool))
  (=> T (Proc2 E D C B T A))))
(assert (forall ((A Int)
         (B Int)
         (C Int)
         (D Int)
         (E Int)
         (F Int)
         (G Int)
         (H Int)
         (I Int)
         (J Int)
         (T Bool))
  (let ((a!1 (or (not T)
                 (not (Proc28 J I H G T))
                 (not (Proc10 J I H G T F E D C))
                 (not (Proc29 C I H G T))
                 (not (and (= B D) (= A C))))))
    (=> (not a!1) (Proc30 J I H G T F E B A)))))
(assert (forall ((A Int)
         (B Int)
         (C Int)
         (D Int)
         (E Int)
         (F Int)
         (G Int)
         (H Int)
         (I Int)
         (J Int)
         (T Bool))
  (let ((a!1 (not (or (not T) (not (Proc27 J I H G T F E)) (not (= D 0))))))
    (=> a!1 (Proc12 J I H G T C F B A D)))))
(assert (forall ((A Int)
         (B Int)
         (C Int)
         (D Int)
         (E Int)
         (F Int)
         (G Int)
         (H Int)
         (I Int)
         (J Int)
         (K Int)
         (T Bool))
  (let ((a!1 (or (not T)
                 (= K 0)
                 (= J 0)
                 (not (Proc31 I H G F T))
                 (not (Proc32 I H G F T K))
                 (not (Proc5 I H G F T E K D C))
                 (not (Proc33 C H G F T D K))
                 (not (and (= B D) (= A C))))))
    (=> (not a!1) (Proc34 I H G F T E K B A)))))
(assert (forall ((A Int)
         (B Int)
         (C Int)
         (D Int)
         (E Int)
         (F Int)
         (G Int)
         (H Int)
         (I Int)
         (J Int)
         (K Int)
         (T Bool))
  (let ((a!1 (or (not T)
                 (= K 0)
                 (= J 0)
                 (not (Proc32 I H G F T K))
                 (not (Proc5 I H G F T E K D C))
                 (not (and (= B D) (= A C))))))
    (=> (not a!1) (Proc35 I H G F T E K B A)))))
(assert (forall ((A Int)
         (B Int)
         (C Int)
         (D Int)
         (E Int)
         (F Int)
         (G Int)
         (H Int)
         (I Int)
         (J Int)
         (K Int)
         (T Bool))
  (let ((a!1 (or (not T)
                 (= K 0)
                 (= J 0)
                 (not (Proc32 I H G F T K))
                 (not (Proc6 I H G F T E K D C))
                 (not (and (= B D) (= A C))))))
    (=> (not a!1) (Proc36 I H G F T E K B A)))))
(assert (forall ((A Int)
         (B Int)
         (C Int)
         (D Int)
         (E Int)
         (F Int)
         (G Int)
         (H Int)
         (I Int)
         (J Int)
         (K Int)
         (T Bool))
  (let ((a!1 (or (not T)
                 (= K 0)
                 (= J 0)
                 (not (Proc32 I H G F T K))
                 (not (Proc6 I H G F T E K D C))
                 (not (and (= B D) (= A C))))))
    (=> (not a!1) (Proc37 I H G F T E K B A)))))
(assert (forall ((A Int)
         (B Int)
         (C Int)
         (D Int)
         (E Int)
         (F Int)
         (G Int)
         (H Int)
         (I Int)
         (J Int)
         (K Int)
         (T Bool))
  (let ((a!1 (or (not T)
                 (= K 0)
                 (= J 0)
                 (not (Proc32 I H G F T K))
                 (not (Proc5 I H G F T E K D C))
                 (not (and (= B D) (= A C))))))
    (=> (not a!1) (Proc38 I H G F T E K B A)))))
(assert (forall ((A Int)
         (B Int)
         (C Int)
         (D Int)
         (E Int)
         (F Int)
         (G Int)
         (H Int)
         (I Int)
         (J Int)
         (K Int)
         (T Bool))
  (let ((a!1 (or (not T)
                 (= K 0)
                 (= J 0)
                 (not (Proc32 I H G F T K))
                 (not (Proc6 I H G F T E K D C))
                 (not (and (= B D) (= A C))))))
    (=> (not a!1) (Proc39 I H G F T E K B A)))))
(assert (forall ((A Int)
         (B Int)
         (C Int)
         (D Int)
         (E Int)
         (F Int)
         (G Int)
         (H Int)
         (I Int)
         (J Int)
         (K Int)
         (T Bool))
  (let ((a!1 (or (not T)
                 (= K 0)
                 (= J 0)
                 (not (Proc32 I H G F T K))
                 (not (Proc6 I H G F T E K D C))
                 (not (and (= B D) (= A C))))))
    (=> (not a!1) (Proc40 I H G F T E K B A)))))
(assert (forall ((A Int)
         (B Int)
         (C Int)
         (D Int)
         (E Int)
         (F Int)
         (G Int)
         (H Int)
         (I Int)
         (J Int)
         (K Int)
         (T Bool))
  (let ((a!1 (or (not T)
                 (= K 0)
                 (= J 0)
                 (not (Proc32 I H G F T K))
                 (not (Proc31 I H G F T))
                 (not (Proc5 I H G F T E K D C))
                 (not (Proc33 C H G F T D K))
                 (not (and (= B D) (= A C))))))
    (=> (not a!1) (Proc41 I H G F T E K B A)))))
(assert (forall ((A Int) (B Int) (C Int) (D Int) (E Int) (T Bool))
  (=> (not (or (not T) (= E 0))) (Proc32 D C B A T E))))
(assert (forall ((A Int)
         (B Int)
         (C Int)
         (D Int)
         (E Int)
         (F Int)
         (G Int)
         (H Int)
         (I Int)
         (J Int)
         (K Int)
         (L Int)
         (M Int)
         (N Int)
         (O Int)
         (P Int)
         (Q Int)
         (R Int)
         (S Int)
         (T Bool)
         (U Int)
         (V Int)
         (W Int)
         (X Int)
         (Y Int)
         (Z Int)
         (A1 Int)
         (B1 Int)
         (C1 Int)
         (D1 Int)
         (E1 Int)
         (F1 Int)
         (G1 Int)
         (H1 Int)
         (I1 Int)
         (J1 Int)
         (K1 Int)
         (L1 Int)
         (M1 Int)
         (N1 Int)
         (O1 Int)
         (P1 Int)
         (Q1 Int)
         (U1 Int)
         (V1 Int)
         (W1 Int)
         (X1 Int)
         (Y1 Int)
         (Z1 Int)
         (A2 Int)
         (B2 Int)
         (C2 Int)
         (D2 Int)
         (E2 Int)
         (F2 Int)
         (G2 Int)
         (H2 Int)
         (I2 Int))
  (let ((a!1 (and (not (<= G2 (+ 12 I2))) (not (<= G2 H2))))
        (a!2 (or (not (and (= K D2) (= J L)))
                 (not (<= 0 M))
                 (not (= I 1))
                 (= I 0)
                 (not (and (= H J) (= G K)))
                 (not (and (= F H) (= E G)))))
        (a!3 (and (not (<= C (+ 1 D))) (not (<= C L))))
        (a!4 (or (not (= A 1))
                 (not (and (= H B) (= G A)))
                 (not (and (= F H) (= E G)))))
        (a!5 (or (= A 1)
                 (not (and (= K A) (= J B)))
                 (not (<= 0 M))
                 (not (= I 1))
                 (= I 0)
                 (not (and (= H J) (= G K)))
                 (not (and (= F H) (= E G))))))
  (let ((a!6 (and a!2
                  (or (not (= D L))
                      (not a!3)
                      (not (Proc17 C F2 E2 D2 T D F2 M B A))
                      (and a!4 a!5)))))
  (let ((a!7 (not (or (not T)
                      (not (= I2 H2))
                      (not a!1)
                      (not (Proc11 G2 F2 E2 D2 T C2 I2 B2 A2))
                      (not (<= 0 B2))
                      (not (= Z1 1))
                      (= Z1 0)
                      (not (Proc30 A2 F2 E2 D2 T Y1 X1 W1 V1))
                      (not (<= 0 W1))
                      (not (= U1 1))
                      (= U1 0)
                      (not (Proc42 V1 F2 E2 D2 T))
                      (not (Proc38 V1 F2 E2 D2 T Q1 F2 P1 O1))
                      (not (<= 0 P1))
                      (not (= N1 1))
                      (= N1 0)
                      (not (Proc41 O1 F2 E2 D2 T M1 F2 L1 K1))
                      (not (<= 0 L1))
                      (not (= J1 1))
                      (= J1 0)
                      (not (Proc34 K1 F2 E2 D2 T I1 F2 H1 G1))
                      (not (<= 0 H1))
                      (not (= F1 1))
                      (= F1 0)
                      (not (Proc35 G1 F2 E2 D2 T E1 F2 D1 C1))
                      (not (<= 0 D1))
                      (not (= B1 1))
                      (= B1 0)
                      (not (Proc37 C1 F2 E2 D2 T A1 F2 Z Y))
                      (not (<= 0 Z))
                      (not (= X 1))
                      (= X 0)
                      (not (Proc40 Y F2 E2 D2 T W F2 V U))
                      (not (<= 0 V))
                      (not (= S 1))
                      (= S 0)
                      (not (Proc36 U F2 E2 D2 T R F2 Q P))
                      (not (<= 0 Q))
                      (not (= O 1))
                      (= O 0)
                      (not (Proc39 P F2 E2 D2 T N F2 M L))
                      a!6))))
    (=> a!7 (Proc25 H2 F2 E2 D2 T F E)))))))
(assert (forall ((A Int) (B Int) (C Int) (D Int) (T Bool)) (=> T (Proc28 D C B A T))))
(assert (forall ((A Int) (B Int) (C Int) (D Int) (T Bool)) (=> T (Proc29 D C B A T))))
(assert (forall ((A Int) (B Int) (C Int) (D Int) (T Bool)) (=> T (Proc31 D C B A T))))
(assert (forall ((A Int) (B Int) (C Int) (D Int) (E Int) (F Int) (T Bool))
  (=> T (Proc33 F E D C T B A))))
(assert (forall ((A Int) (B Int) (C Int) (D Int) (T Bool)) (=> T (Proc42 D C B A T))))
(assert (forall ((A Int)
         (B Int)
         (C Int)
         (D Int)
         (E Int)
         (F Int)
         (G Int)
         (H Int)
         (I Int)
         (J Int)
         (K Int)
         (L Int)
         (M Int)
         (N Int)
         (O Int)
         (P Int)
         (Q Int)
         (R Int)
         (S Int)
         (T Bool)
         (U Int)
         (V Int)
         (W Int)
         (X Int)
         (Y Int)
         (Z Int)
         (A1 Int)
         (B1 Int)
         (C1 Int)
         (D1 Int)
         (E1 Int)
         (F1 Int)
         (G1 Int)
         (H1 Int)
         (I1 Int)
         (J1 Int)
         (K1 Int)
         (L1 Int)
         (M1 Int)
         (N1 Int)
         (O1 Int)
         (P1 Int)
         (Q1 Int)
         (U1 Int)
         (V1 Int)
         (W1 Int)
         (X1 Int)
         (Y1 Int)
         (Z1 Int)
         (A2 Int)
         (B2 Int)
         (C2 Int)
         (D2 Int)
         (E2 Int)
         (F2 Int)
         (G2 Int)
         (H2 Int)
         (I2 Int)
         (J2 Int)
         (K2 Int)
         (L2 Int))
  (let ((a!1 (and (not (<= J2 (+ 240 L2)))
                  (not (<= J2 K2))
                  (= I2 J2)
                  (not (<= H2 (+ 4 I2)))
                  (not (<= H2 J2))
                  (= G2 H2)
                  (not (<= F2 (+ 332 G2)))
                  (not (<= F2 H2))
                  (= E2 F2)
                  (not (<= D2 (+ 4 E2)))
                  (not (<= D2 F2))
                  (= C2 D2)
                  (not (<= B2 (+ 536 C2)))
                  (not (<= B2 D2))
                  (= A2 B2)
                  (not (<= Z1 (+ 240 A2)))))
        (a!2 (and (not (<= Z1 B2))
                  (= Y1 Z1)
                  (not (<= X1 (+ 240 Y1)))
                  (not (<= X1 Z1))
                  (= W1 X1)
                  (not (<= V1 (+ 536 W1)))
                  (not (<= V1 X1))
                  (= U1 V1)
                  (not (<= Q1 (+ 240 U1)))
                  (not (<= Q1 V1))
                  (= P1 Q1)
                  (not (<= O1 (+ 4 P1)))
                  (not (<= O1 Q1))
                  (= N1 O1)
                  (not (<= M1 (+ 536 N1)))
                  (not (<= M1 O1))
                  (= L1 M1)
                  (not (<= K1 (+ 332 L1)))
                  (not (<= K1 M1))
                  (= J1 K1)
                  (not (<= I1 (+ 240 J1)))
                  (not (<= I1 K1))
                  (= H1 I1)
                  (not (<= G1 (+ 240 H1)))
                  (not (<= G1 I1))
                  (= F1 G1)
                  (not (<= E1 (+ 332 F1)))
                  (not (<= E1 G1))
                  (= D1 E1)
                  (not (<= C1 (+ 4 D1)))
                  (not (<= C1 E1))
                  (= B1 C1)
                  (not (<= A1 (+ 68 B1)))
                  (not (<= A1 C1))
                  (= Z A1)
                  (not (<= Y (+ 536 Z)))
                  (not (<= Y A1))
                  (= X Y)
                  (not (<= W (+ 240 X)))
                  (not (<= W Y))
                  (= V W)
                  (not (<= U (+ 240 V)))
                  (not (<= U W))
                  (= S U)
                  (not (<= R (+ 240 S)))
                  (not (<= R U))
                  (= Q R)
                  (not (<= P (+ 240 Q)))
                  (not (<= P R))
                  (= O P)
                  (not (<= N (+ 240 O)))
                  (not (<= N P))
                  (= M N)
                  (not (<= L (+ 40 M)))
                  (not (<= L N))
                  (= K L)
                  (not (<= J (+ 332 K)))
                  (not (<= J L))
                  (= I J)
                  (not (<= H (+ 4 I)))
                  (not (<= H J))
                  (= G H)
                  (not (<= F (+ 40 G)))
                  (not (<= F H)))))
  (let ((a!3 (or (not T)
                 (not (= L2 K2))
                 (not a!1)
                 (not a!2)
                 (not (and (= E F) (= D O))))))
    (=> (not a!3) (Proc24 K2 C B A T E D))))))
(assert (forall ((A Int)
         (B Int)
         (C Int)
         (D Int)
         (E Int)
         (F Int)
         (G Int)
         (H Int)
         (I Int)
         (J Int)
         (K Int)
         (L Int)
         (M Int)
         (N Int)
         (T Bool)
         (R1 Bool)
         (S1 Bool))
  (let ((a!1 (or (not S1)
                 (not (and (Proc26 N M L K true J I H R1 G F) (not R1))))))
    (=> (not a!1) (Proc43 N M L K S1 E T D C B A)))))
(assert (let ((a!1 (exists ((V0 Int)
                    (V1 Int)
                    (V2 Int)
                    (V3 Int)
                    (V4 Bool)
                    (V5 Int)
                    (V6 Bool)
                    (V7 Int)
                    (V8 Int)
                    (V9 Int)
                    (V10 Int))
             (not (=> (and (Proc43 V0 V1 V2 V3 V4 V5 V6 V7 V8 V9 V10)
                           (not false))
                      false)))))
  (not a!1)))

(check-sat)
